(set-logic ALL)
(declare-datatype Tuple ((empty) (mkTuple (getField0 Int))))

(declare-var i_preCon Int)
(declare-var i_postCon Int)
(declare-var x_preCon Int)
(declare-var x_postCon Int)
(declare-var A_preCon (Seq Int))
(declare-var A_postCon (Seq Int))
(declare-var variantVar0 Int)

(define-fun preCondition ((i_preCon Int) (x_preCon Int) (A_preCon (Seq Int)) (variantVar0 Int)) Bool (and (and (not (exists ( (var_q Int)) (and (>= var_q (+ i_preCon 1)) (< var_q (seq.len A_preCon)) (= (seq.nth A_preCon var_q) x_preCon)))) (not (= (seq.nth A_preCon i_preCon) x_preCon)) (= variantVar0 i_preCon) (not false) (> (seq.len A_preCon) 0) (< (seq.len A_preCon) 10) (>= i_preCon 0) (< i_preCon (seq.len A_preCon)) (exists ( (var_q Int)) (and (>= var_q 0) (< var_q (seq.len A_preCon)) (= (seq.nth A_preCon var_q) x_preCon))) (= true true) (= true true) true)))

(define-fun postCondition ((i_postCon Int) (x_postCon Int) (A_postCon (Seq Int)) (variantVar0 Int)) Bool (and (and (not (exists ( (var_q Int)) (and (>= var_q (+ i_postCon 1)) (< var_q (seq.len A_postCon)) (= (seq.nth A_postCon var_q) x_postCon)))) (> variantVar0 i_postCon))))

(synth-fun targetFunction ((i Int) (x Int) (A (Seq Int))) Tuple)

(declare-var i_in Int)
(declare-var x_in Int)
(declare-var A_in (Seq Int))
(declare-var i_out Int)

(constraint (forall ((i_in Int) (x_in Int) (A_in (Seq Int)) (i_out Int) (variantVar0 Int)) (=>
	(and
		(preCondition i_in x_in A_in variantVar0)
		(= i_out (getField0 (targetFunction i_in x_in A_in)))
	)
	(and
		(postCondition i_out x_in A_in variantVar0)
	)
)))
(check-synth)